
# PYTHONPATH must include directory above plugin directory.
#     Define either externally or here, then import plugin.
sys.path.insert(0, './..')
import syshfwplug


plugin_load("./syshfwplug.so")


molecule {
Au 0.0 0.0 0.0 
Au 2.5 0.0 0.0
symmetry c1
}

set {
  basis def2-svp
}

set syshfwplug {
  pref mytest
  do_tei 1
  print 1
}

set scf reference uhf
set scf_type pk
set scf PRINT_MOS  true


e_scf,ref_wfn = energy('scf',return_wfn=True)

ref_wfn.Da().print_out()

plugin("syshfwplug.so", ref_wfn)
#syshfwplug.exampleFN(ref_wfn)
